solution status: optimal solution found
objective value:                     122372.219941165
d11(0,0)                                            1 	(obj:0)
d11(1,1)                                            1 	(obj:0)
d11(2,4)                                            1 	(obj:0)
d11(2,5)                                            1 	(obj:0)
d11(2,6)                                            1 	(obj:0)
d11(2,7)                                            1 	(obj:0)
d11(2,8)                                            1 	(obj:0)
d11(2,9)                                            1 	(obj:0)
d11(2,10)                                           1 	(obj:0)
d11(2,11)                                           1 	(obj:0)
d11(3,13)                                           1 	(obj:0)
d11(3,14)                                           1 	(obj:0)
d11(3,15)                                           1 	(obj:0)
d11(3,16)                                           1 	(obj:0)
d11(3,17)                                           1 	(obj:0)
d11(3,18)                                           1 	(obj:0)
d11(3,19)                                           1 	(obj:0)
d11(3,20)                                           1 	(obj:0)
d11(3,21)                                           1 	(obj:0)
d11(3,22)                                           1 	(obj:0)
d11(3,23)                                           1 	(obj:0)
d11(3,25)                                           1 	(obj:0)
d11(3,26)                                           1 	(obj:0)
d11(3,27)                                           1 	(obj:0)
d11(3,28)                                           1 	(obj:0)
d11(3,29)                                           1 	(obj:0)
d11(3,31)                                           1 	(obj:0)
d11(3,32)                                           1 	(obj:0)
d11(3,33)                                           1 	(obj:0)
d11(3,34)                                           1 	(obj:0)
d11(3,35)                                           1 	(obj:0)
d11(3,36)                                           1 	(obj:0)
d11(3,37)                                           1 	(obj:0)
d11(3,38)                                           1 	(obj:0)
d11(3,39)                                           1 	(obj:0)
d12(1,2)                                            1 	(obj:0)
d12(1,3)                                            1 	(obj:0)
d21(3,13)                                           1 	(obj:0)
d21(3,14)                                           1 	(obj:0)
d21(3,16)                                           1 	(obj:0)
d21(3,17)                                           1 	(obj:0)
d21(3,22)                                           1 	(obj:0)
d21(3,23)                                           1 	(obj:0)
d21(3,25)                                           1 	(obj:0)
d21(3,31)                                           1 	(obj:0)
STE(1,1)                             3494.47334307194 	(obj:0)
STE(0,0)                                         4725 	(obj:0)
STE(1,2)                                         4347 	(obj:0)
STE(1,3)                             5387.92163385004 	(obj:0)
STE(2,4)                             902.255136405252 	(obj:0)
STE(2,5)                             1899.02113973854 	(obj:0)
STE(2,6)                             3116.47334307194 	(obj:0)
STE(2,7)                             1754.78179333332 	(obj:0)
STE(2,8)                             2751.54779666661 	(obj:0)
STE(2,9)                             3968.99999999999 	(obj:0)
STE(2,10)                            2795.70342718336 	(obj:0)
STE(2,11)                            3792.46943051665 	(obj:0)
STE(2,12)                            5009.92163385004 	(obj:0)
STE(3,13)                           -1689.96307026146 	(obj:0)
STE(3,14)                           -693.197066928144 	(obj:0)
STE(3,15)                            524.255136405191 	(obj:0)
STE(3,16)                           -693.197066928131 	(obj:0)
STE(3,17)                            303.568936405225 	(obj:0)
STE(3,18)                            1521.02113973854 	(obj:0)
STE(3,19)                             524.25513640532 	(obj:0)
STE(3,20)                            1521.02113973854 	(obj:0)
STE(3,21)                            2738.47334307194 	(obj:0)
STE(3,22)                            -837.43641333329 	(obj:0)
STE(3,23)                            159.329589999877 	(obj:0)
STE(3,24)                            1376.78179333332 	(obj:0)
STE(3,25)                            159.329589999925 	(obj:0)
STE(3,26)                            1156.09559333328 	(obj:0)
STE(3,27)                            2373.54779666661 	(obj:0)
STE(3,28)                            1376.78179333338 	(obj:0)
STE(3,29)                            2373.54779666658 	(obj:0)
STE(3,30)                            3590.99999999999 	(obj:0)
STE(3,31)                             203.48522051674 	(obj:0)
STE(3,32)                            1200.25122384998 	(obj:0)
STE(3,33)                            2417.70342718336 	(obj:0)
STE(3,34)                            1200.25122384996 	(obj:0)
STE(3,35)                            2197.01722718331 	(obj:0)
STE(3,36)                            3414.46943051665 	(obj:0)
STE(3,37)                             2417.7034271834 	(obj:0)
STE(3,38)                            3414.46943051665 	(obj:0)
STE(3,39)                            4631.92163385004 	(obj:0)
y1(3,23)                              1095.7069830001 	(obj:0)
y1(3,25)                             1992.79638600001 	(obj:0)
y1(3,26)                                  1095.706983 	(obj:0)
y1(3,28)                             1992.79638599995 	(obj:0)
y1(3,29)                             1095.70698300006 	(obj:0)
y1(3,31)                             1992.79638599995 	(obj:0)
y1(3,32)                             1095.70698300004 	(obj:0)
y1(3,34)                             1992.79638600001 	(obj:0)
y1(3,35)                             1095.70698300001 	(obj:0)
y1(3,37)                             1992.79638599997 	(obj:0)
y1(3,38)                             1095.70698300005 	(obj:0)
BG(3)                                      4495.91835 	(obj:10)
WB(1)                                3199.95851117552 	(obj:0)
AVE(1)                               3199.95851117552 	(obj:0)
AVE(2)                               3265.15049132519 	(obj:0)
WB(3)                                3291.35535332476 	(obj:0)
AVE(3)                               3291.35535332476 	(obj:0)
WG(2)                                3265.15049132513 	(obj:10)
BG(1)                                 3245.3852941176 	(obj:10)
BG(2)                                1230.76785867487 	(obj:10)
y1(1,1)                              767.273991235258 	(obj:0)
y1(2,4)                              1992.79638600001 	(obj:0)
y1(2,5)                              1095.70698300005 	(obj:0)
y1(2,7)                              1992.79638600001 	(obj:0)
y1(2,8)                              1095.70698300005 	(obj:0)
y1(2,10)                             1992.79638600001 	(obj:0)
y1(2,11)                             1095.70698300005 	(obj:0)
y1(3,13)                             1992.79638600004 	(obj:0)
y1(3,14)                             1095.70698300006 	(obj:0)
y1(3,16)                             1992.79638600001 	(obj:0)
y1(3,17)                             1095.70698299999 	(obj:0)
y1(3,19)                             1992.79638599995 	(obj:0)
y1(3,20)                             1095.70698300005 	(obj:0)
y1(3,22)                             1992.79638599995 	(obj:0)
y2(1,3)                              1095.70698300004 	(obj:0)
